c SAT Generator for power-law distributed variable frequencies
c -g u -v 20 -c 91 -k 3 -p 2.750000 -b 3.200000 -f /home/schmidt/Devel/ni-kop-sat/data/ensemble/ruf20-91/ruf20-91-817 -u 1 -U 1 -s 4066699014
p cnf 20 91
-3 -7 15 0
10 12 19 0
-3 -7 -9 0
5 6 -8 0
-10 -15 17 0
6 16 -18 0
-1 6 -12 0
1 -11 20 0
12 -17 18 0
9 -10 13 0
-8 10 11 0
-1 -8 15 0
6 -17 -18 0
5 13 17 0
-7 -14 -20 0
-1 9 12 0
3 6 9 0
-3 -13 17 0
-14 16 19 0
-6 -7 8 0
-1 -6 -13 0
-2 -4 -9 0
-8 -14 20 0
-6 15 20 0
-13 -14 17 0
1 -8 15 0
-2 5 12 0
-1 10 -12 0
-3 5 6 0
-13 15 16 0
-1 -7 -20 0
3 -5 -20 0
3 -9 10 0
-4 11 20 0
1 5 9 0
-3 5 -13 0
3 8 14 0
12 -13 20 0
-8 18 19 0
6 10 -19 0
2 -7 9 0
5 9 -16 0
-4 11 -13 0
2 9 -12 0
4 -8 -19 0
1 12 -18 0
3 -4 9 0
4 14 18 0
-11 13 -15 0
3 -8 -15 0
-2 -7 -13 0
3 -7 -9 0
4 7 15 0
11 12 -14 0
13 17 19 0
-2 4 13 0
2 -4 -7 0
-4 -11 18 0
1 -3 17 0
5 17 -20 0
-7 13 -16 0
8 -13 16 0
-1 -6 12 0
-3 -12 14 0
-12 -13 17 0
-11 12 13 0
-1 5 12 0
4 7 -19 0
1 -7 -13 0
-9 -14 16 0
16 19 -20 0
1 -5 18 0
1 13 17 0
2 -5 11 0
4 -7 -14 0
-15 -16 -18 0
9 -11 19 0
1 -2 6 0
-1 -17 -18 0
-11 -18 19 0
-4 -7 8 0
2 -5 7 0
-8 -19 20 0
-4 16 -17 0
-5 16 -19 0
-4 -13 -16 0
-3 12 17 0
-1 4 7 0
6 -10 -17 0
5 6 16 0
-2 9 -19 0
